p wcnf 130 195 196 
1 123 23 0 
1 -77 109 0 
1 10 -22 0 
1 -44 -94 0 
1 -111 -36 0 
1 1 73 0 
1 -60 -26 0 
1 -130 96 0 
1 -56 16 0 
1 -14 114 0 
1 36 -73 0 
1 124 58 0 
1 6 32 0 
1 41 91 0 
1 44 -47 0 
1 -128 63 0 
1 -65 58 0 
1 -122 -115 0 
1 -113 -76 0 
1 -30 97 0 
1 -59 6 0 
1 -127 35 0 
1 -64 24 0 
1 35 -49 0 
1 -26 79 0 
1 -14 127 0 
1 52 -72 0 
1 -46 -9 0 
1 -37 -126 0 
1 36 -16 0 
1 -95 -87 0 
1 -59 23 0 
1 -31 98 0 
1 -117 -119 0 
1 103 47 0 
1 -39 10 0 
1 51 -38 0 
1 -35 102 0 
1 98 -64 0 
1 -15 -43 0 
1 52 -55 0 
1 91 65 0 
1 97 -56 0 
1 -28 -35 0 
1 -107 57 0 
1 44 -21 0 
1 -109 -79 0 
1 -114 18 0 
1 -120 -58 0 
1 -112 93 0 
1 -65 97 0 
1 86 -22 0 
1 62 -98 0 
1 -3 -118 0 
1 -76 29 0 
1 75 125 0 
1 -123 -27 0 
1 -92 -31 0 
1 36 84 0 
1 62 -97 0 
1 -67 32 0 
1 22 9 0 
1 110 -113 0 
1 -108 121 0 
1 -87 13 0 
1 112 46 0 
1 -1 -75 0 
1 25 27 0 
1 86 -100 0 
1 126 -13 0 
1 41 116 0 
1 -123 126 0 
1 5 -20 0 
1 -2 123 0 
1 29 111 0 
1 -102 85 0 
1 -47 99 0 
1 -6 129 0 
1 27 95 0 
1 -109 108 0 
1 105 12 0 
1 89 -110 0 
1 -50 -20 0 
1 112 -121 0 
1 97 88 0 
1 -121 2 0 
1 -31 -127 0 
1 120 -51 0 
1 87 -16 0 
1 127 -26 0 
1 -109 37 0 
1 -89 65 0 
1 3 28 0 
1 -29 -125 0 
1 29 -79 0 
1 -4 -7 0 
1 -22 -106 0 
1 33 46 0 
1 -113 50 0 
1 -75 -45 0 
1 16 88 0 
1 94 77 0 
1 -75 -31 0 
1 -98 128 0 
1 -130 85 0 
1 -26 17 0 
1 -33 -60 0 
1 74 -8 0 
1 5 22 0 
1 -56 -87 0 
1 -42 -18 0 
1 130 25 0 
1 -73 -86 0 
1 -48 37 0 
1 114 -19 0 
1 -111 -112 0 
1 38 -113 0 
1 -37 91 0 
1 -103 75 0 
1 88 -123 0 
1 95 -101 0 
1 116 34 0 
1 36 125 0 
1 -83 129 0 
1 7 59 0 
1 3 -59 0 
1 -109 36 0 
1 -130 -75 0 
1 -85 102 0 
1 70 123 0 
1 -84 80 0 
1 -56 90 0 
1 -28 -96 0 
1 -30 -38 0 
1 -80 56 0 
1 -16 5 0 
1 98 113 0 
1 -85 5 0 
1 -10 -85 0 
1 -55 -36 0 
1 62 95 0 
1 29 -73 0 
1 -117 -19 0 
1 -31 3 0 
1 -86 37 0 
1 9 124 0 
1 -91 42 0 
1 -34 -1 0 
1 -73 67 0 
1 -7 2 0 
1 9 25 0 
1 5 -98 0 
1 29 -16 0 
1 -11 -4 0 
1 99 -129 0 
1 100 -40 0 
1 -68 -73 0 
1 -7 -111 0 
1 79 -30 0 
1 -128 55 0 
1 -34 97 0 
1 -52 -24 0 
1 -79 -92 0 
1 -130 79 0 
1 -128 -23 0 
1 39 98 0 
1 -23 -86 0 
1 -95 -27 0 
1 -103 -85 0 
1 88 -120 0 
1 71 -97 0 
1 57 97 0 
1 -124 -96 0 
1 -117 18 0 
1 -71 106 0 
1 -1 -48 0 
1 13 -44 0 
1 -87 101 0 
1 62 -10 0 
1 33 6 0 
1 89 -56 0 
1 -61 77 0 
1 28 -19 0 
1 118 -40 0 
1 -51 37 0 
1 108 4 0 
1 34 -78 0 
1 -48 -83 0 
1 -73 -10 0 
1 127 -110 0 
1 14 130 0 
1 5 -76 0 
1 75 -115 0 
1 55 74 0 
1 123 -126 0 
